/*********************************************
 * OPL 12.2 Data
 * Author: mireia.roca
 * Creation Date: 04/02/16
*********************************************/
Id=8093;
c=2;
n=25;
N={1,2,3,4,5,6,7,8,9,10,11,12,13,14,15,16,17,18,19,20,21,22,23,24,25};
D={26,27};
Q=300;
CJ=[{2},{1},{1},{1},{2},{1,2},{1},{2},{1},{1,2},{1,2},{1,2},{2},{1},{1,2},{1,2},{1},{2},{1,2},{2},{2},{2},{1,2},{2},{2}];
d=[
[0,32],[45,0],[27,0],[26,0],[0,28],[38,41],[40,0],[0,43],[39,0],[43,34],[33,33],[29,47],[0,46],[47,0],[49,35],[45,34],[44,0],[0,35],[32,45],[0,39],[0,40],[0,44],[38,41],[0,40],[0,28]];
m=[4,4];
K=[{1,2,3,4},{5,6,7,8}];
KT={1,2,3,4,5,6,7,8};
cv=50;
cost = #[
<1,2>:20.81,
<1,3>:16.12,
<1,4>:22.09,
<1,5>:23.71,
<1,6>:9.43,
<1,7>:29.15,
<1,8>:2.24,
<1,9>:20.88,
<1,10>:9.49,
<1,11>:20.25,
<1,12>:6.40,
<1,13>:18.87,
<1,14>:21.10,
<1,15>:22.80,
<1,16>:8.49,
<1,17>:20.81,
<1,18>:22.67,
<1,19>:18.03,
<1,20>:2.00,
<1,21>:21.54,
<1,22>:9.49,
<1,23>:28.86,
<1,24>:7.21,
<1,25>:26.40,
<1,26>:60.00,
<1,27>:82.46,
<2,1>:20.81,
<2,3>:31.26,
<2,4>:41.44,
<2,5>:4.12,
<2,6>:25.96,
<2,7>:48.38,
<2,8>:20.59,
<2,9>:6.71,
<2,10>:27.51,
<2,11>:40.71,
<2,12>:27.02,
<2,13>:8.06,
<2,14>:35.01,
<2,15>:42.95,
<2,16>:21.10,
<2,17>:7.07,
<2,18>:34.13,
<2,19>:38.47,
<2,20>:19.21,
<2,21>:5.00,
<2,22>:27.51,
<2,23>:48.85,
<2,24>:13.60,
<2,25>:7.07,
<2,26>:39.20,
<2,27>:102.65,
<3,1>:16.12,
<3,2>:31.26,
<3,4>:12.81,
<3,5>:35.13,
<3,6>:6.71,
<3,7>:18.60,
<3,8>:14.32,
<3,9>:34.06,
<3,10>:7.07,
<3,11>:15.81,
<3,12>:16.40,
<3,13>:25.30,
<3,14>:5.00,
<3,15>:16.12,
<3,16>:24.41,
<3,17>:27.51,
<3,18>:7.62,
<3,19>:14.32,
<3,20>:17.89,
<3,21>:34.00,
<3,22>:7.07,
<3,23>:20.52,
<3,24>:20.40,
<3,25>:38.12,
<3,26>:68.03,
<3,27>:81.41,
<4,1>:22.09,
<4,2>:41.44,
<4,3>:12.81,
<4,5>:44.92,
<4,6>:15.65,
<4,7>:7.07,
<4,8>:21.38,
<4,9>:42.76,
<4,10>:13.93,
<4,11>:5.83,
<4,12>:18.25,
<4,13>:36.72,
<4,14>:13.60,
<4,15>:4.00,
<4,16>:28.28,
<4,17>:38.95,
<4,18>:17.72,
<4,19>:6.40,
<4,20>:24.08,
<4,21>:43.17,
<4,22>:13.93,
<4,23>:7.81,
<4,24>:28.64,
<4,25>:47.80,
<4,26>:79.65,
<4,27>:68.88,
<5,1>:23.71,
<5,2>:4.12,
<5,3>:35.13,
<5,4>:44.92,
<5,6>:29.61,
<5,7>:51.92,
<5,8>:23.77,
<5,9>:5.10,
<5,10>:31.05,
<5,11>:43.86,
<5,12>:29.68,
<5,13>:12.08,
<5,14>:39.00,
<5,15>:46.24,
<5,16>:22.67,
<5,17>:10.82,
<5,18>:38.21,
<5,19>:41.63,
<5,20>:21.95,
<5,21>:3.16,
<5,22>:31.05,
<5,23>:52.20,
<5,24>:16.55,
<5,25>:3.00,
<5,26>:36.80,
<5,27>:104.66,
<6,1>:9.43,
<6,2>:25.96,
<6,3>:6.71,
<6,4>:15.65,
<6,5>:29.61,
<6,7>:22.47,
<6,8>:7.62,
<6,9>:28.02,
<6,10>:2.24,
<6,11>:16.28,
<6,12>:10.77,
<6,13>:21.10,
<6,14>:11.66,
<6,15>:17.80,
<6,16>:17.80,
<6,17>:23.32,
<6,18>:13.45,
<6,19>:14.21,
<6,20>:11.18,
<6,21>:28.16,
<6,22>:2.24,
<6,23>:23.32,
<6,24>:14.04,
<6,25>:32.56,
<6,26>:64.01,
<6,27>:81.84,
<7,1>:29.15,
<7,2>:48.38,
<7,3>:18.60,
<7,4>:7.07,
<7,5>:51.92,
<7,6>:22.47,
<7,8>:28.44,
<7,9>:49.82,
<7,10>:20.88,
<7,11>:10.77,
<7,12>:25.08,
<7,13>:43.38,
<7,14>:17.80,
<7,15>:7.62,
<7,16>:35.13,
<7,17>:45.62,
<7,18>:21.63,
<7,19>:12.37,
<7,20>:31.14,
<7,21>:50.22,
<7,22>:20.88,
<7,23>:4.12,
<7,24>:35.69,
<7,25>:54.82,
<7,26>:86.31,
<7,27>:65.19,
<8,1>:2.24,
<8,2>:20.59,
<8,3>:14.32,
<8,4>:21.38,
<8,5>:23.77,
<8,6>:7.62,
<8,7>:28.44,
<8,9>:21.38,
<8,10>:8.06,
<8,11>:20.12,
<8,12>:7.62,
<8,13>:17.80,
<8,14>:19.24,
<8,15>:22.47,
<8,16>:10.63,
<8,17>:19.85,
<8,18>:20.62,
<8,19>:17.89,
<8,20>:3.61,
<8,21>:21.84,
<8,22>:8.06,
<8,23>:28.46,
<8,24>:7.28,
<8,25>:26.57,
<8,26>:59.64,
<8,27>:83.41,
<9,1>:20.88,
<9,2>:6.71,
<9,3>:34.06,
<9,4>:42.76,
<9,5>:5.10,
<9,6>:28.02,
<9,7>:49.82,
<9,8>:21.38,
<9,10>:29.15,
<9,11>:41.11,
<9,12>:26.40,
<9,13>:14.14,
<9,14>:38.33,
<9,15>:43.68,
<9,16>:18.44,
<9,17>:13.60,
<9,18>:38.08,
<9,19>:38.90,
<9,20>:18.97,
<9,21>:2.00,
<9,22>:29.15,
<9,23>:49.73,
<9,24>:14.14,
<9,25>:6.40,
<9,26>:41.04,
<9,27>:100.42,
<10,1>:9.49,
<10,2>:27.51,
<10,3>:7.07,
<10,4>:13.93,
<10,5>:31.05,
<10,6>:2.24,
<10,7>:20.88,
<10,8>:8.06,
<10,9>:29.15,
<10,11>:14.14,
<10,12>:9.43,
<10,13>:23.02,
<10,14>:12.04,
<10,15>:15.81,
<10,16>:17.49,
<10,17>:25.24,
<10,18>:14.42,
<10,19>:12.04,
<10,20>:11.40,
<10,21>:29.43,
<10,22>:0.00,
<10,23>:21.47,
<10,24>:15.03,
<10,25>:33.96,
<10,26>:65.86,
<10,27>:79.61,
<11,1>:20.25,
<11,2>:40.71,
<11,3>:15.81,
<11,4>:5.83,
<11,5>:43.86,
<11,6>:16.28,
<11,7>:10.77,
<11,8>:20.12,
<11,9>:41.11,
<11,10>:14.14,
<11,12>:15.13,
<11,13>:37.01,
<11,14>:18.03,
<11,15>:3.16,
<11,16>:25.02,
<11,17>:39.20,
<11,18>:22.09,
<11,19>:2.24,
<11,20>:22.14,
<11,21>:41.79,
<11,22>:14.14,
<11,23>:9.00,
<11,24>:27.31,
<11,25>:46.62,
<11,26>:79.61,
<11,27>:65.86,
<12,1>:6.40,
<12,2>:27.02,
<12,3>:16.40,
<12,4>:18.25,
<12,5>:29.68,
<12,6>:10.77,
<12,7>:25.08,
<12,8>:7.62,
<12,9>:26.40,
<12,10>:9.43,
<12,11>:15.13,
<12,13>:25.24,
<12,14>:21.26,
<12,15>:18.03,
<12,16>:10.05,
<12,17>:27.20,
<12,18>:23.85,
<12,19>:13.04,
<12,20>:7.81,
<12,21>:27.29,
<12,22>:9.43,
<12,23>:24.08,
<12,24>:13.45,
<12,25>:32.25,
<12,26>:66.22,
<12,27>:76.06,
<13,1>:18.87,
<13,2>:8.06,
<13,3>:25.30,
<13,4>:36.72,
<13,5>:12.08,
<13,6>:21.10,
<13,7>:43.38,
<13,8>:17.80,
<13,9>:14.14,
<13,10>:23.02,
<13,11>:37.01,
<13,12>:25.24,
<13,14>:28.44,
<13,15>:38.83,
<13,16>:22.36,
<13,17>:2.24,
<13,18>:27.02,
<13,19>:34.83,
<13,20>:17.89,
<13,21>:12.81,
<13,22>:23.02,
<13,23>:44.42,
<13,24>:12.65,
<13,25>:14.87,
<13,26>:42.94,
<13,27>:101.21,
<14,1>:21.10,
<14,2>:35.01,
<14,3>:5.00,
<14,4>:13.60,
<14,5>:39.00,
<14,6>:11.66,
<14,7>:17.80,
<14,8>:19.24,
<14,9>:38.33,
<14,10>:12.04,
<14,11>:18.03,
<14,12>:21.26,
<14,13>:28.44,
<14,15>:17.46,
<14,16>:29.41,
<14,17>:30.59,
<14,18>:4.12,
<14,19>:17.03,
<14,20>:22.83,
<14,21>:38.12,
<14,22>:12.04,
<14,23>:20.59,
<14,24>:25.00,
<14,25>:42.00,
<14,26>:70.58,
<14,27>:82.35,
<15,1>:22.80,
<15,2>:42.95,
<15,3>:16.12,
<15,4>:4.00,
<15,5>:46.24,
<15,6>:17.80,
<15,7>:7.62,
<15,8>:22.47,
<15,9>:43.68,
<15,10>:15.81,
<15,11>:3.16,
<15,12>:18.03,
<15,13>:38.83,
<15,14>:17.46,
<15,16>:28.00,
<15,17>:41.05,
<15,18>:21.59,
<15,19>:5.00,
<15,20>:24.74,
<15,21>:44.27,
<15,22>:15.81,
<15,23>:6.08,
<15,24>:29.73,
<15,25>:49.04,
<15,26>:81.63,
<15,27>:65.30,
<16,1>:8.49,
<16,2>:21.10,
<16,3>:24.41,
<16,4>:28.28,
<16,5>:22.67,
<16,6>:17.80,
<16,7>:35.13,
<16,8>:10.63,
<16,9>:18.44,
<16,10>:17.49,
<16,11>:25.02,
<16,12>:10.05,
<16,13>:22.36,
<16,14>:29.41,
<16,15>:28.00,
<16,17>:23.77,
<16,18>:31.14,
<16,19>:23.00,
<16,20>:7.21,
<16,21>:19.80,
<16,22>:17.49,
<16,23>:34.01,
<16,24>:10.00,
<16,25>:24.76,
<16,26>:59.40,
<16,27>:82.02,
<17,1>:20.81,
<17,2>:7.07,
<17,3>:27.51,
<17,4>:38.95,
<17,5>:10.82,
<17,6>:23.32,
<17,7>:45.62,
<17,8>:19.85,
<17,9>:13.60,
<17,10>:25.24,
<17,11>:39.20,
<17,12>:27.20,
<17,13>:2.24,
<17,14>:30.59,
<17,15>:41.05,
<17,16>:23.77,
<17,18>:29.07,
<17,19>:37.01,
<17,20>:19.72,
<17,21>:12.04,
<17,22>:25.24,
<17,23>:46.65,
<17,24>:14.32,
<17,25>:13.42,
<17,26>:40.71,
<17,27>:103.23,
<18,1>:22.67,
<18,2>:34.13,
<18,3>:7.62,
<18,4>:17.72,
<18,5>:38.21,
<18,6>:13.45,
<18,7>:21.63,
<18,8>:20.62,
<18,9>:38.08,
<18,10>:14.42,
<18,11>:22.09,
<18,12>:23.85,
<18,13>:27.02,
<18,14>:4.12,
<18,15>:21.59,
<18,16>:31.14,
<18,17>:29.07,
<18,19>:21.00,
<18,20>:24.21,
<18,21>:37.66,
<18,22>:14.42,
<18,23>:24.60,
<18,24>:25.50,
<18,25>:41.19,
<18,26>:68.31,
<18,27>:86.41,
<19,1>:18.03,
<19,2>:38.47,
<19,3>:14.32,
<19,4>:6.40,
<19,5>:41.63,
<19,6>:14.21,
<19,7>:12.37,
<19,8>:17.89,
<19,9>:38.90,
<19,10>:12.04,
<19,11>:2.24,
<19,12>:13.04,
<19,13>:34.83,
<19,14>:17.03,
<19,15>:5.00,
<19,16>:23.00,
<19,17>:37.01,
<19,18>:21.00,
<19,20>:19.92,
<19,21>:39.56,
<19,22>:12.04,
<19,23>:11.05,
<19,24>:25.08,
<19,25>:44.38,
<19,26>:77.39,
<19,27>:67.74,
<20,1>:2.00,
<20,2>:19.21,
<20,3>:17.89,
<20,4>:24.08,
<20,5>:21.95,
<20,6>:11.18,
<20,7>:31.14,
<20,8>:3.61,
<20,9>:18.97,
<20,10>:11.40,
<20,11>:22.14,
<20,12>:7.81,
<20,13>:17.89,
<20,14>:22.83,
<20,15>:24.74,
<20,16>:7.21,
<20,17>:19.72,
<20,18>:24.21,
<20,19>:19.92,
<20,21>:19.70,
<20,22>:11.40,
<20,23>:30.81,
<20,24>:5.66,
<20,25>:24.60,
<20,26>:58.41,
<20,27>:83.74,
<21,1>:21.54,
<21,2>:5.00,
<21,3>:34.00,
<21,4>:43.17,
<21,5>:3.16,
<21,6>:28.16,
<21,7>:50.22,
<21,8>:21.84,
<21,9>:2.00,
<21,10>:29.43,
<21,11>:41.79,
<21,12>:27.29,
<21,13>:12.81,
<21,14>:38.12,
<21,15>:44.27,
<21,16>:19.80,
<21,17>:12.04,
<21,18>:37.66,
<21,19>:39.56,
<21,20>:19.70,
<21,22>:29.43,
<21,23>:50.29,
<21,24>:14.56,
<21,25>:5.00,
<21,26>:39.60,
<21,27>:101.82,
<22,1>:9.49,
<22,2>:27.51,
<22,3>:7.07,
<22,4>:13.93,
<22,5>:31.05,
<22,6>:2.24,
<22,7>:20.88,
<22,8>:8.06,
<22,9>:29.15,
<22,10>:0.00,
<22,11>:14.14,
<22,12>:9.43,
<22,13>:23.02,
<22,14>:12.04,
<22,15>:15.81,
<22,16>:17.49,
<22,17>:25.24,
<22,18>:14.42,
<22,19>:12.04,
<22,20>:11.40,
<22,21>:29.43,
<22,23>:21.47,
<22,24>:15.03,
<22,25>:33.96,
<22,26>:65.86,
<22,27>:79.61,
<23,1>:28.86,
<23,2>:48.85,
<23,3>:20.52,
<23,4>:7.81,
<23,5>:52.20,
<23,6>:23.32,
<23,7>:4.12,
<23,8>:28.46,
<23,9>:49.73,
<23,10>:21.47,
<23,11>:9.00,
<23,12>:24.08,
<23,13>:44.42,
<23,14>:20.59,
<23,15>:6.08,
<23,16>:34.01,
<23,17>:46.65,
<23,18>:24.60,
<23,19>:11.05,
<23,20>:30.81,
<23,21>:50.29,
<23,22>:21.47,
<23,24>:35.74,
<23,25>:55.03,
<23,26>:87.32,
<23,27>:61.85,
<24,1>:7.21,
<24,2>:13.60,
<24,3>:20.40,
<24,4>:28.64,
<24,5>:16.55,
<24,6>:14.04,
<24,7>:35.69,
<24,8>:7.28,
<24,9>:14.14,
<24,10>:15.03,
<24,11>:27.31,
<24,12>:13.45,
<24,13>:12.65,
<24,14>:25.00,
<24,15>:29.73,
<24,16>:10.00,
<24,17>:14.32,
<24,18>:25.50,
<24,19>:25.08,
<24,20>:5.66,
<24,21>:14.56,
<24,22>:15.03,
<24,23>:35.74,
<24,25>:19.31,
<24,26>:52.80,
<24,27>:89.38,
<25,1>:26.40,
<25,2>:7.07,
<25,3>:38.12,
<25,4>:47.80,
<25,5>:3.00,
<25,6>:32.56,
<25,7>:54.82,
<25,8>:26.57,
<25,9>:6.40,
<25,10>:33.96,
<25,11>:46.62,
<25,12>:32.25,
<25,13>:14.87,
<25,14>:42.00,
<25,15>:49.04,
<25,16>:24.76,
<25,17>:13.42,
<25,18>:41.19,
<25,19>:44.38,
<25,20>:24.60,
<25,21>:5.00,
<25,22>:33.96,
<25,23>:55.03,
<25,24>:19.31,
<25,26>:34.66,
<25,27>:106.78,
<26,1>:60.00,
<26,2>:39.20,
<26,3>:68.03,
<26,4>:79.65,
<26,5>:36.80,
<26,6>:64.01,
<26,7>:86.31,
<26,8>:59.64,
<26,9>:41.04,
<26,10>:65.86,
<26,11>:79.61,
<26,12>:66.22,
<26,13>:42.94,
<26,14>:70.58,
<26,15>:81.63,
<26,16>:59.40,
<26,17>:40.71,
<26,18>:68.31,
<26,19>:77.39,
<26,20>:58.41,
<26,21>:39.60,
<26,22>:65.86,
<26,23>:87.32,
<26,24>:52.80,
<26,25>:34.66,
<27,1>:82.46,
<27,2>:102.65,
<27,3>:81.41,
<27,4>:68.88,
<27,5>:104.66,
<27,6>:81.84,
<27,7>:65.19,
<27,8>:83.41,
<27,9>:100.42,
<27,10>:79.61,
<27,11>:65.86,
<27,12>:76.06,
<27,13>:101.21,
<27,14>:82.35,
<27,15>:65.30,
<27,16>:82.02,
<27,17>:103.23,
<27,18>:86.41,
<27,19>:67.74,
<27,20>:83.74,
<27,21>:101.82,
<27,22>:79.61,
<27,23>:61.85,
<27,24>:89.38,
<27,25>:106.78,
]#;


/*********************************************
 * Author: Zimmermann, Julia. Carvalheira, Rafael.
 * Creation Date: 30/01/25
*********************************************/

SCCVRPSPD

p = [
0 33
28 0
31 0
44 0
0 44
33 37
49 0
0 33
31 0
41 40
37 50
27 32
0 33
39 0
39 42
49 30
38 0
0 44
44 36
0 48
0 33
0 30
45 47
0 33
0 40
]

SCCVRPSPDM-M

m2m[1, 26, 2] = 32
m2m[2, 10, 1] = 17
m2m[2, 26, 1] = 28
m2m[3, 6, 1] = 27
m2m[4, 26, 1] = 26
m2m[5, 16, 2] = 28
m2m[6, 26, 2] = 41
m2m[7, 26, 1] = 40
m2m[8, 26, 2] = 43
m2m[9, 26, 1] = 39
m2m[10, 26, 2] = 34
m2m[11, 26, 1] = 33
m2m[12, 26, 1] = 29
m2m[13, 11, 2] = 36
m2m[13, 26, 2] = 10
m2m[14, 15, 1] = 43
m2m[14, 26, 1] = 4
m2m[15, 26, 2] = 35
m2m[16, 26, 1] = 45
m2m[17, 26, 1] = 44
m2m[18, 26, 2] = 35
m2m[19, 26, 2] = 45
m2m[20, 11, 2] = 11
m2m[20, 26, 2] = 28
m2m[21, 12, 2] = 21
m2m[21, 26, 2] = 19
m2m[22, 16, 2] = 27
m2m[22, 26, 2] = 17
m2m[23, 26, 2] = 41
m2m[24, 26, 2] = 40
m2m[25, 26, 2] = 28
m2m[26, 1, 2] = 33
m2m[26, 4, 1] = 44
m2m[26, 6, 2] = 37
m2m[26, 7, 1] = 49
m2m[26, 8, 2] = 33
m2m[26, 9, 1] = 31
m2m[26, 10, 2] = 40
m2m[26, 11, 1] = 37
m2m[26, 12, 1] = 27
m2m[26, 15, 2] = 42
m2m[26, 16, 1] = 49
m2m[26, 17, 1] = 38
m2m[26, 18, 2] = 44
m2m[26, 19, 2] = 36
m2m[26, 23, 2] = 47
m2m[26, 24, 2] = 33
m2m[26, 25, 2] = 40
